Instance Name : r111
Date : 2022-07-20
Solution
Route 1 : 7 19 64 49 36 46 47 48 82
Route 2 : 18 45 8 84 17 5 83 60 89
Route 3 : 92 85 61 16 44 38 86 14 43 2
Route 4 : 87 97 37 98 100 91 93 96
Route 5 : 6 99 59 95 94 13
Route 6 : 27 52 88 62 11 63 90 10 31
Route 7 : 53 40 58
Route 8 : 42 57 15 41 22 75 56 74 4 26
Route 9 : 21 73 72 23 67 39 55 25 54
Route 10 : 28 76 3 79 78 29 24 80 12
Route 11 : 69 50 33 81 9 35 34 68 77
Route 12 : 1 30 51 71 65 66 20 32 70
